language ESSENCE' 1.0

letting jobs = 102
letting horizon = 763
letting resourcesRenew = 2
letting resourcesNonrenew = 2
letting resourceLimits = [32, 26, 162, 156]
letting successors = [[2, 3, 4, 5, 6, 7, 8, 9, 10, 12, 14, 15, 16, 19, 24], [47, 35, 30, 29, 28, 22, 21, 11], [42, 36, 26, 23, 20, 11], [40, 37, 35, 29, 18, 17, 13], [49, 37, 35, 30, 29, 28, 18, 17], [57, 49, 47, 45, 41, 37, 32, 31, 28, 27, 25, 22], [57, 54, 50, 49, 48, 47, 46, 45, 44, 42, 41, 40, 36, 35, 34, 29, 28, 27], [50, 47, 46, 45, 41, 36, 35, 29, 27, 25, 21], [68, 57, 50, 49, 48, 47, 46, 45, 40, 39, 38, 37, 35, 31, 28, 25], [57, 54, 47, 42, 40, 33, 18], [57, 54, 49, 45, 37, 18], [74, 68, 54, 53, 50, 49, 48, 47, 45, 42, 40, 38, 37, 35, 25], [49, 47, 45, 44, 43, 41, 38, 36, 31, 22], [68, 57, 54, 50, 49, 48, 47, 44, 42, 35, 31, 27], [57, 53, 48, 46, 45, 42, 38, 28, 23], [54, 49, 45, 44, 41, 35, 31, 28, 27], [74, 59, 57, 56, 54, 53, 52, 48, 47, 46, 45, 43, 42, 41, 39, 34], [74, 59, 56, 50, 48, 46, 41, 39, 38, 31, 25], [68, 54, 50, 49, 42, 40, 35, 34, 29, 27], [49, 48, 45, 44, 40, 37, 31, 28], [74, 57, 56, 55, 54, 53, 52, 51, 49, 48, 44, 40, 34], [85, 63, 61, 59, 56, 54, 53, 52, 51, 50, 48, 42, 34], [80, 74, 68, 59, 55, 52, 44, 43, 39, 35], [74, 68, 65, 56, 55, 53, 51, 45, 43, 34], [63, 55, 52, 51, 44, 43, 34], [79, 74, 70, 69, 66, 64, 62, 61, 60, 57, 54, 51, 50, 49, 47], [80, 74, 61, 60, 59, 58, 52, 39, 38], [100, 80, 79, 78, 74, 72, 66, 65, 63, 60, 58, 56, 51, 43], [101, 98, 71, 66, 65, 64, 62, 60, 59, 58, 56, 55, 43], [78, 72, 69, 65, 64, 58, 55, 53, 38], [101, 84, 83, 80, 78, 72, 67, 66, 65, 64, 62, 55, 53], [101, 100, 99, 79, 78, 74, 71, 69, 65, 60, 58, 46], [85, 72, 69, 67, 64, 63, 60, 58, 55, 53, 48], [101, 98, 82, 80, 78, 72, 71, 69, 67, 66, 64, 62, 60, 58], [101, 85, 78, 73, 70, 69, 65, 64, 63, 62, 60, 58, 56], [100, 99, 85, 83, 79, 78, 74, 72, 65, 60, 56, 53], [96, 79, 77, 72, 70, 69, 59, 58, 51], [101, 99, 98, 95, 94, 85, 83, 79, 76, 71, 70, 67, 62], [101, 100, 99, 76, 73, 72, 69, 67, 51], [100, 99, 97, 96, 85, 84, 81, 78, 76, 70, 69, 63], [99, 94, 85, 83, 80, 77, 71, 69, 68, 64, 55], [99, 98, 96, 95, 94, 84, 83, 82, 81, 78, 76, 75, 71, 62], [99, 93, 85, 84, 83, 73, 70, 69, 67, 61], [101, 96, 95, 85, 82, 81, 79, 77, 75, 58], [100, 97, 96, 92, 83, 82, 81, 80, 76, 75, 63], [98, 97, 85, 84, 83, 76, 75, 72, 70, 67], [100, 98, 97, 94, 93, 86, 85, 84, 83, 82, 81, 80, 76, 75, 71], [100, 99, 98, 94, 88, 86, 84, 83, 81, 79, 75, 70], [99, 95, 83, 82, 81, 78, 76, 65], [100, 99, 98, 97, 92, 90, 87, 80, 77, 72], [98, 95, 94, 93, 86, 84, 83, 82, 81, 71], [101, 99, 95, 91, 83, 82, 65], [98, 95, 86, 81, 75, 71, 70], [99, 95, 92, 75, 73, 67], [96, 95, 89, 87, 86, 81, 79, 76], [97, 96, 94, 93, 86, 84, 76, 75], [98, 94, 93, 90, 88, 86, 82, 75], [94, 92, 90, 86, 84, 83, 76], [100, 99, 97, 92, 91, 88, 86, 78], [96, 92, 89, 88, 86, 81, 75], [97, 95, 94, 92, 91, 88, 87, 86], [100, 97, 93, 88, 87, 77], [98, 95, 94, 93, 87, 77], [93, 91, 90, 89, 88, 87, 86], [96, 93, 92, 90, 77], [99, 93, 92, 89, 86], [96, 87, 86, 81], [96, 87, 86, 81], [90, 88, 75], [92, 91, 82], [92, 90, 88], [95, 94, 86], [94, 90, 88], [94, 88, 86], [91, 87], [91, 88], [89, 86], [93, 87], [97, 93], [91, 88], [90], [89], [87], [89], [88], [102], [102], [102], [102], [102], [102], [102], [102], [102], [102], [102], [102], [102], [102], [102], [102], []]
letting durations = [[0], [3, 8, 10], [2, 10, 10], [1, 4, 10], [7, 10, 10], [6, 6, 7], [5, 6, 8], [2, 4, 5], [2, 4, 6], [1, 2, 6], [5, 5, 9], [1, 3, 4], [1, 4, 9], [2, 3, 10], [2, 4, 8], [1, 4, 6], [3, 5, 9], [2, 5, 7], [5, 7, 10], [1, 2, 2], [8, 8, 9], [5, 8, 9], [1, 4, 5], [7, 8, 8], [3, 4, 8], [2, 8, 10], [6, 7, 8], [1, 5, 7], [1, 2, 8], [5, 5, 8], [2, 7, 8], [6, 6, 8], [2, 7, 9], [1, 9, 10], [4, 6, 9], [1, 5, 7], [1, 6, 9], [9, 10, 10], [1, 6, 6], [4, 4, 7], [2, 3, 6], [2, 3, 4], [3, 4, 6], [2, 5, 10], [3, 3, 6], [4, 5, 6], [8, 9, 10], [4, 7, 10], [1, 1, 9], [3, 6, 8], [1, 3, 8], [3, 3, 6], [2, 4, 9], [7, 9, 10], [1, 6, 10], [5, 8, 10], [2, 6, 8], [9, 9, 10], [2, 4, 10], [1, 2, 3], [7, 7, 8], [8, 9, 10], [2, 3, 4], [1, 2, 5], [2, 2, 5], [3, 6, 10], [6, 7, 9], [6, 7, 9], [6, 7, 8], [4, 8, 9], [2, 2, 5], [1, 2, 4], [3, 4, 5], [1, 4, 9], [1, 2, 2], [2, 7, 8], [3, 7, 8], [4, 5, 8], [1, 1, 2], [1, 5, 8], [3, 4, 5], [1, 4, 8], [2, 3, 3], [3, 4, 8], [2, 4, 5], [1, 7, 9], [2, 7, 10], [7, 8, 8], [1, 6, 10], [2, 3, 8], [6, 6, 8], [1, 2, 8], [3, 4, 7], [3, 4, 8], [7, 8, 8], [4, 5, 7], [3, 8, 9], [3, 7, 8], [4, 7, 10], [2, 3, 9], [1, 3, 3], [0]]
letting resourceUsage = [[[0, 0, 0, 0]], [[5, 0, 0, 9], [3, 0, 0, 8], [0, 2, 0, 8]], [[4, 0, 0, 8], [0, 3, 2, 0], [4, 0, 0, 5]], [[0, 3, 10, 0], [0, 3, 0, 4], [1, 0, 5, 0]], [[5, 0, 4, 0], [3, 0, 2, 0], [2, 0, 0, 3]], [[0, 5, 9, 0], [0, 5, 0, 2], [2, 0, 7, 0]], [[2, 0, 0, 9], [0, 3, 3, 0], [0, 2, 0, 5]], [[3, 0, 0, 9], [0, 3, 0, 4], [2, 0, 3, 0]], [[0, 3, 3, 0], [0, 2, 1, 0], [1, 0, 1, 0]], [[0, 1, 9, 0], [1, 0, 0, 2], [1, 0, 0, 1]], [[0, 4, 3, 0], [1, 0, 0, 3], [1, 0, 1, 0]], [[3, 0, 0, 7], [3, 0, 0, 6], [2, 0, 0, 5]], [[0, 5, 0, 6], [0, 5, 0, 5], [4, 0, 0, 6]], [[0, 4, 0, 8], [0, 2, 7, 0], [0, 1, 0, 3]], [[0, 4, 10, 0], [0, 4, 0, 2], [0, 4, 0, 1]], [[0, 1, 7, 0], [0, 1, 0, 7], [2, 0, 0, 4]], [[0, 4, 9, 0], [2, 0, 5, 0], [2, 0, 0, 7]], [[0, 5, 0, 10], [2, 0, 4, 0], [2, 0, 0, 9]], [[3, 0, 0, 9], [0, 3, 3, 0], [1, 0, 3, 0]], [[3, 0, 10, 0], [3, 0, 7, 0], [0, 2, 6, 0]], [[0, 3, 8, 0], [2, 0, 6, 0], [2, 0, 0, 3]], [[0, 3, 0, 7], [0, 1, 0, 6], [3, 0, 0, 4]], [[0, 5, 10, 0], [0, 4, 7, 0], [2, 0, 6, 0]], [[0, 2, 0, 4], [3, 0, 0, 3], [3, 0, 7, 0]], [[0, 5, 0, 5], [3, 0, 7, 0], [0, 3, 0, 2]], [[3, 0, 0, 6], [0, 4, 0, 4], [0, 4, 2, 0]], [[0, 3, 8, 0], [0, 3, 7, 0], [1, 0, 0, 1]], [[4, 0, 0, 6], [2, 0, 6, 0], [2, 0, 4, 0]], [[0, 4, 9, 0], [4, 0, 0, 6], [2, 0, 5, 0]], [[3, 0, 3, 0], [0, 4, 3, 0], [0, 3, 1, 0]], [[4, 0, 0, 3], [0, 1, 0, 2], [2, 0, 4, 0]], [[0, 4, 8, 0], [4, 0, 6, 0], [0, 1, 4, 0]], [[5, 0, 9, 0], [5, 0, 0, 5], [0, 4, 0, 2]], [[4, 0, 8, 0], [0, 2, 4, 0], [0, 2, 3, 0]], [[0, 3, 0, 7], [0, 1, 0, 6], [1, 0, 0, 4]], [[3, 0, 0, 5], [3, 0, 2, 0], [3, 0, 1, 0]], [[0, 2, 7, 0], [3, 0, 0, 8], [0, 2, 4, 0]], [[3, 0, 2, 0], [1, 0, 1, 0], [0, 2, 0, 3]], [[0, 5, 3, 0], [4, 0, 2, 0], [0, 2, 0, 4]], [[0, 3, 0, 10], [3, 0, 6, 0], [0, 1, 0, 7]], [[5, 0, 8, 0], [0, 1, 6, 0], [0, 1, 3, 0]], [[4, 0, 0, 6], [0, 4, 0, 5], [0, 4, 0, 3]], [[0, 2, 6, 0], [0, 1, 4, 0], [0, 1, 0, 1]], [[3, 0, 0, 5], [0, 1, 0, 3], [1, 0, 0, 1]], [[0, 3, 0, 6], [2, 0, 6, 0], [2, 0, 0, 5]], [[0, 4, 2, 0], [2, 0, 0, 3], [2, 0, 1, 0]], [[2, 0, 7, 0], [1, 0, 6, 0], [0, 4, 3, 0]], [[3, 0, 9, 0], [3, 0, 0, 3], [1, 0, 7, 0]], [[4, 0, 7, 0], [0, 3, 7, 0], [4, 0, 6, 0]], [[2, 0, 7, 0], [2, 0, 6, 0], [0, 1, 4, 0]], [[0, 3, 0, 8], [0, 2, 0, 6], [0, 1, 2, 0]], [[3, 0, 10, 0], [3, 0, 0, 7], [3, 0, 0, 4]], [[3, 0, 3, 0], [3, 0, 0, 7], [1, 0, 1, 0]], [[4, 0, 7, 0], [4, 0, 0, 5], [0, 4, 5, 0]], [[0, 3, 2, 0], [1, 0, 0, 6], [1, 0, 0, 5]], [[3, 0, 8, 0], [0, 5, 0, 2], [0, 5, 0, 1]], [[0, 3, 3, 0], [1, 0, 2, 0], [0, 2, 0, 9]], [[0, 5, 2, 0], [3, 0, 2, 0], [0, 3, 0, 2]], [[4, 0, 8, 0], [0, 2, 0, 3], [4, 0, 7, 0]], [[0, 2, 0, 4], [5, 0, 2, 0], [0, 2, 2, 0]], [[4, 0, 0, 8], [3, 0, 7, 0], [3, 0, 4, 0]], [[0, 4, 0, 10], [0, 2, 0, 6], [0, 2, 0, 5]], [[0, 5, 0, 10], [2, 0, 5, 0], [1, 0, 2, 0]], [[5, 0, 0, 5], [3, 0, 0, 4], [0, 4, 0, 3]], [[1, 0, 5, 0], [0, 3, 3, 0], [0, 2, 3, 0]], [[0, 4, 7, 0], [4, 0, 0, 5], [0, 4, 0, 5]], [[1, 0, 0, 5], [0, 3, 5, 0], [1, 0, 0, 2]], [[0, 4, 0, 7], [0, 4, 0, 6], [4, 0, 2, 0]], [[5, 0, 0, 6], [2, 0, 0, 4], [2, 0, 7, 0]], [[2, 0, 3, 0], [1, 0, 0, 7], [0, 2, 1, 0]], [[0, 2, 0, 3], [2, 0, 0, 3], [2, 0, 0, 2]], [[3, 0, 1, 0], [0, 4, 0, 4], [1, 0, 1, 0]], [[0, 5, 0, 9], [2, 0, 4, 0], [1, 0, 4, 0]], [[5, 0, 7, 0], [0, 2, 0, 1], [1, 0, 2, 0]], [[0, 2, 6, 0], [0, 2, 3, 0], [2, 0, 1, 0]], [[5, 0, 3, 0], [3, 0, 3, 0], [0, 1, 0, 2]], [[4, 0, 6, 0], [0, 3, 6, 0], [0, 3, 5, 0]], [[3, 0, 9, 0], [2, 0, 0, 6], [2, 0, 0, 5]], [[0, 2, 0, 8], [3, 0, 0, 6], [0, 2, 0, 3]], [[0, 3, 0, 9], [0, 3, 0, 8], [3, 0, 0, 8]], [[0, 2, 5, 0], [2, 0, 0, 3], [0, 2, 0, 1]], [[5, 0, 7, 0], [4, 0, 0, 6], [0, 2, 5, 0]], [[2, 0, 0, 8], [0, 3, 4, 0], [0, 2, 0, 7]], [[3, 0, 2, 0], [3, 0, 1, 0], [2, 0, 0, 7]], [[0, 4, 0, 10], [0, 4, 0, 7], [2, 0, 0, 3]], [[4, 0, 7, 0], [4, 0, 0, 7], [3, 0, 0, 5]], [[0, 1, 0, 3], [0, 1, 0, 2], [1, 0, 0, 1]], [[2, 0, 7, 0], [2, 0, 5, 0], [2, 0, 0, 2]], [[0, 5, 0, 3], [0, 3, 7, 0], [0, 3, 0, 2]], [[0, 3, 9, 0], [2, 0, 7, 0], [0, 1, 3, 0]], [[0, 5, 3, 0], [1, 0, 3, 0], [0, 2, 2, 0]], [[0, 3, 0, 2], [3, 0, 5, 0], [1, 0, 4, 0]], [[4, 0, 0, 4], [0, 2, 4, 0], [0, 2, 0, 4]], [[0, 2, 0, 6], [0, 2, 0, 5], [0, 2, 0, 4]], [[4, 0, 0, 5], [0, 4, 4, 0], [0, 4, 0, 4]], [[0, 1, 0, 4], [0, 1, 0, 3], [1, 0, 0, 2]], [[2, 0, 4, 0], [0, 3, 0, 2], [0, 3, 2, 0]], [[0, 3, 5, 0], [0, 3, 4, 0], [3, 0, 4, 0]], [[0, 3, 8, 0], [0, 3, 5, 0], [0, 2, 4, 0]], [[4, 0, 0, 5], [0, 2, 8, 0], [3, 0, 0, 2]], [[0, 3, 6, 0], [4, 0, 0, 5], [3, 0, 1, 0]], [[0, 0, 0, 0]]]
